1 3 100 245560.47
1 3 200 252734.18
1 3 300 244658.16
2 3 100 313986.89
2 3 200 331969.46
2 3 300 322149.07
3 3 100 309239.40
3 3 200 322530.15
3 3 300 316427.10
4 3 100 311287.74
4 3 200 302498.57
4 3 300 297599.48
5 3 100 274539.60
5 3 200 274385.38
5 3 300 266712.66
